; benchmark generated from python API
(set-info :status unknown)
(declare-fun DISJ_W_S2_R_S2 () Bool)
(declare-fun DISJ_W_S2_R_S1 () Bool)
(declare-fun R_E1_V4 () Bool)
(declare-fun W_S1_V4 () Bool)
(declare-fun R_E1_V5 () Bool)
(declare-fun W_S1_V5 () Bool)
(declare-fun W_S2_V5 () Bool)
(declare-fun W_S2_V2 () Bool)
(declare-fun W_S2_V3 () Bool)
(declare-fun W_S2_V1 () Bool)
(declare-fun R_S2_V4 () Bool)
(declare-fun R_S2_V5 () Bool)
(declare-fun R_S2_V2 () Bool)
(declare-fun R_S2_V3 () Bool)
(declare-fun R_S2_V1 () Bool)
(declare-fun R_S1_V4 () Bool)
(declare-fun R_S1_V5 () Bool)
(declare-fun R_S1_V2 () Bool)
(declare-fun R_S1_V3 () Bool)
(declare-fun R_S1_V1 () Bool)
(declare-fun R_E1_V2 () Bool)
(declare-fun DISJ_W_S2_R_E1 () Bool)
(declare-fun DISJ_W_S1_W_S2 () Bool)
(declare-fun R_E1_V3 () Bool)
(declare-fun DISJ_W_S1_R_S2 () Bool)
(declare-fun DISJ_W_S1_R_S1 () Bool)
(declare-fun W_S2_V4 () Bool)
(declare-fun W_S1_V3 () Bool)
(declare-fun W_S1_V2 () Bool)
(declare-fun W_S1_V1 () Bool)
(declare-fun R_E1_V1 () Bool)
(declare-fun DISJ_W_S1_R_E1 () Bool)
(assert
 (let (($x5047 (not (and DISJ_W_S2_R_S1 DISJ_W_S2_R_S2))))
 (let (($x20 (not (and W_S1_V4 R_E1_V4))))
 (let (($x4438 (not (and W_S1_V5 R_E1_V5))))
 (let (($x4306 (forall ((V3_0 Int) )(forall ((V2_0 Int) )(forall ((V5_0 Int) )(forall ((V4_0 Int) )(forall ((MW_S1_V1 Bool) )(forall ((MW_S1_V3 Bool) )(forall ((MW_S1_V2 Bool) )(forall ((MW_S1_V5 Bool) )(forall ((MW_S1_V4 Bool) )(forall ((MW_S2_V1 Bool) )(forall ((MW_S2_V3 Bool) )(forall ((MW_S2_V2 Bool) )(forall ((MW_S2_V5 Bool) )(forall ((MW_S2_V4 Bool) )(forall ((S1_V1_!2447 Int) )(forall ((S1_V1_!2464 Int) )(forall ((S1_V1_!2474 Int) )(forall ((S2_V5_!2456 Int) )(forall ((S2_V5_!2461 Int) )(forall ((S2_V5_!2472 Int) )(forall ((S2_V5_!2482 Int) )(forall ((S1_V3_!2448 Int) )(forall ((S1_V3_!2465 Int) )(forall ((S1_V3_!2475 Int) )(forall ((S1_V2_!2449 Int) )(forall ((S1_V2_!2466 Int) )(forall ((S1_V2_!2476 Int) )(forall ((E1_!2446 Int) )(forall ((E1_!2452 Int) )(forall ((E1_!2463 Int) )(forall ((S2_V4_!2457 Int) )(forall ((S2_V4_!2462 Int) )(forall ((S2_V4_!2473 Int) )(forall ((S2_V4_!2483 Int) )(forall ((S1_V5_!2450 Int) )(forall ((S1_V5_!2467 Int) )(forall ((S1_V5_!2477 Int) )(forall ((S2_V1_!2453 Int) )(forall ((S2_V1_!2458 Int) )(forall ((S2_V1_!2469 Int) )(forall ((S2_V1_!2479 Int) )(forall ((S1_V4_!2451 Int) )(forall ((S1_V4_!2468 Int) )(forall ((S1_V4_!2478 Int) )(forall ((S2_V2_!2455 Int) )(forall ((S2_V2_!2460 Int) )(forall ((S2_V2_!2471 Int) )(forall ((S2_V2_!2481 Int) )(forall ((S2_V3_!2454 Int) )(forall ((S2_V3_!2459 Int) )(forall ((S2_V3_!2470 Int) )(forall ((S2_V3_!2480 Int) )(let (($x5378 (= (ite MW_S2_V4 S2_V4_!2462 (ite MW_S1_V4 S1_V4_!2451 V4_0)) (ite MW_S2_V4 S2_V4_!2483 (ite MW_S1_V4 S1_V4_!2478 (ite MW_S2_V4 S2_V4_!2473 (ite MW_S1_V4 S1_V4_!2468 V4_0)))))))
 (let (($x1788 (= (ite MW_S2_V5 S2_V5_!2461 (ite MW_S1_V5 S1_V5_!2450 V5_0)) (ite MW_S2_V5 S2_V5_!2482 (ite MW_S1_V5 S1_V5_!2477 (ite MW_S2_V5 S2_V5_!2472 (ite MW_S1_V5 S1_V5_!2467 V5_0)))))))
 (let ((?x3930 (ite MW_S1_V2 S1_V2_!2466 V2_0)))
 (let ((?x1999 (ite MW_S2_V2 S2_V2_!2471 ?x3930)))
 (let ((?x757 (ite MW_S1_V2 S1_V2_!2476 ?x1999)))
 (let ((?x5024 (ite MW_S2_V2 S2_V2_!2481 ?x757)))
 (let ((?x5965 (ite MW_S1_V2 S1_V2_!2449 V2_0)))
 (let ((?x2136 (ite MW_S2_V2 S2_V2_!2460 ?x5965)))
 (let (($x1687 (= (ite MW_S2_V3 S2_V3_!2459 (ite MW_S1_V3 S1_V3_!2448 V3_0)) (ite MW_S2_V3 S2_V3_!2480 (ite MW_S1_V3 S1_V3_!2475 (ite MW_S2_V3 S2_V3_!2470 (ite MW_S1_V3 S1_V3_!2465 V3_0)))))))
 (let ((?x2506 (ite MW_S1_V1 S1_V1_!2464 E1_!2463)))
 (let ((?x2002 (ite MW_S2_V1 S2_V1_!2469 ?x2506)))
 (let ((?x3274 (+ 1 ?x2002)))
 (let ((?x2950 (ite MW_S1_V1 S1_V1_!2474 ?x3274)))
 (let ((?x5873 (ite MW_S2_V1 S2_V1_!2479 ?x2950)))
 (let ((?x866 (ite MW_S2_V1 S2_V1_!2453 E1_!2452)))
 (let ((?x5356 (+ 1 ?x866)))
 (let ((?x3064 (ite MW_S2_V1 S2_V1_!2458 ?x5356)))
 (let (($x5082 (and (not (<= V2_0 E1_!2446)) (>= (ite MW_S1_V1 S1_V1_!2447 E1_!2446) (+ (- 1) ?x5965)) (not (<= ?x5965 E1_!2452)) (not (<= (ite MW_S2_V2 S2_V2_!2455 ?x5965) ?x5356)) (>= ?x3064 (+ (- 1) ?x2136)) (not (<= V2_0 E1_!2463)) (not (<= ?x1999 ?x3274)) (>= ?x5873 (+ (- 1) ?x5024)))))
 (let (($x3797 (= S2_V3_!2480 S2_V3_!2470)))
 (let ((?x5018 (ite MW_S1_V4 S1_V4_!2468 V4_0)))
 (let ((?x4308 (ite MW_S2_V4 S2_V4_!2473 ?x5018)))
 (let ((?x1246 (ite MW_S1_V4 S1_V4_!2478 ?x4308)))
 (let (($x139 (not R_S2_V4)))
 (let ((?x5285 (ite MW_S1_V5 S1_V5_!2467 V5_0)))
 (let ((?x5127 (ite MW_S2_V5 S2_V5_!2472 ?x5285)))
 (let ((?x2643 (ite MW_S1_V5 S1_V5_!2477 ?x5127)))
 (let (($x2170 (not R_S2_V5)))
 (let ((?x2301 (ite MW_S1_V3 S1_V3_!2465 V3_0)))
 (let ((?x442 (ite MW_S2_V3 S2_V3_!2470 ?x2301)))
 (let ((?x3955 (ite MW_S1_V3 S1_V3_!2475 ?x442)))
 (let (($x5445 (not R_S2_V3)))
 (let (($x2773 (and (or (not R_S2_V1) (= ?x2950 ?x2506)) (or $x5445 (= ?x3955 ?x2301)) (or (not R_S2_V2) (= ?x757 ?x3930)) (or $x2170 (= ?x2643 ?x5285)) (or $x139 (= ?x1246 ?x5018)))))
 (let (($x3472 (not $x2773)))
 (let (($x694 (= S2_V3_!2480 S2_V3_!2459)))
 (let (($x5070 (and (or (not R_S2_V1) (= ?x2950 ?x5356)) (or $x5445 (= ?x3955 (ite MW_S2_V3 S2_V3_!2454 (ite MW_S1_V3 S1_V3_!2448 V3_0)))) (or (not R_S2_V2) (= ?x757 (ite MW_S2_V2 S2_V2_!2455 ?x5965))) (or $x2170 (= ?x2643 (ite MW_S2_V5 S2_V5_!2456 (ite MW_S1_V5 S1_V5_!2450 V5_0)))) (or $x139 (= ?x1246 (ite MW_S2_V4 S2_V4_!2457 (ite MW_S1_V4 S1_V4_!2451 V4_0)))))))
 (let (($x2125 (not $x5070)))
 (let (($x1010 (= S2_V3_!2470 S2_V3_!2459)))
 (let (($x2645 (and (or (not R_S2_V1) (= ?x2506 ?x5356)) (or $x5445 (= ?x2301 (ite MW_S2_V3 S2_V3_!2454 (ite MW_S1_V3 S1_V3_!2448 V3_0)))) (or (not R_S2_V2) (= ?x3930 (ite MW_S2_V2 S2_V2_!2455 ?x5965))) (or $x2170 (= ?x5285 (ite MW_S2_V5 S2_V5_!2456 (ite MW_S1_V5 S1_V5_!2450 V5_0)))) (or $x139 (= ?x5018 (ite MW_S2_V4 S2_V4_!2457 (ite MW_S1_V4 S1_V4_!2451 V4_0)))))))
 (let (($x5618 (not $x2645)))
 (let (($x3573 (= S2_V3_!2454 S2_V3_!2480)))
 (let (($x1309 (and (or (not R_S2_V1) (= E1_!2452 ?x2950)) (or $x5445 (= (ite MW_S1_V3 S1_V3_!2448 V3_0) ?x3955)) (or (not R_S2_V2) (= ?x5965 ?x757)) (or $x2170 (= (ite MW_S1_V5 S1_V5_!2450 V5_0) ?x2643)) (or $x139 (= (ite MW_S1_V4 S1_V4_!2451 V4_0) ?x1246)))))
 (let (($x607 (not $x1309)))
 (let (($x3802 (= S2_V3_!2454 S2_V3_!2470)))
 (let (($x3151 (and (or (not R_S2_V1) (= E1_!2452 ?x2506)) (or $x5445 (= (ite MW_S1_V3 S1_V3_!2448 V3_0) ?x2301)) (or (not R_S2_V2) (= ?x5965 ?x3930)) (or $x2170 (= (ite MW_S1_V5 S1_V5_!2450 V5_0) ?x5285)) (or $x139 (= (ite MW_S1_V4 S1_V4_!2451 V4_0) ?x5018)))))
 (let (($x3461 (not $x3151)))
 (let (($x2094 (= S2_V3_!2454 S2_V3_!2459)))
 (let (($x3447 (or $x139 (= (ite MW_S1_V4 S1_V4_!2451 V4_0) (ite MW_S2_V4 S2_V4_!2457 (ite MW_S1_V4 S1_V4_!2451 V4_0))))))
 (let (($x2494 (or $x2170 (= (ite MW_S1_V5 S1_V5_!2450 V5_0) (ite MW_S2_V5 S2_V5_!2456 (ite MW_S1_V5 S1_V5_!2450 V5_0))))))
 (let (($x6028 (or $x5445 (= (ite MW_S1_V3 S1_V3_!2448 V3_0) (ite MW_S2_V3 S2_V3_!2454 (ite MW_S1_V3 S1_V3_!2448 V3_0))))))
 (let (($x3000 (and (or (not R_S2_V1) (= E1_!2452 ?x5356)) $x6028 (or (not R_S2_V2) (= ?x5965 (ite MW_S2_V2 S2_V2_!2455 ?x5965))) $x2494 $x3447)))
 (let (($x4828 (not $x3000)))
 (let (($x3725 (= S2_V2_!2481 S2_V2_!2455)))
 (let (($x3235 (and (or (not R_S2_V1) (= ?x2950 E1_!2452)) (or $x5445 (= ?x3955 (ite MW_S1_V3 S1_V3_!2448 V3_0))) (or (not R_S2_V2) (= ?x757 ?x5965)) (or $x2170 (= ?x2643 (ite MW_S1_V5 S1_V5_!2450 V5_0))) (or $x139 (= ?x1246 (ite MW_S1_V4 S1_V4_!2451 V4_0))))))
 (let (($x11 (not $x3235)))
 (let (($x1297 (= S2_V2_!2471 S2_V2_!2481)))
 (let (($x1699 (and (or (not R_S2_V1) (= ?x2506 ?x2950)) (or $x5445 (= ?x2301 ?x3955)) (or (not R_S2_V2) (= ?x3930 ?x757)) (or $x2170 (= ?x5285 ?x2643)) (or $x139 (= ?x5018 ?x1246)))))
 (let (($x2080 (not $x1699)))
 (let (($x4783 (= S2_V2_!2471 S2_V2_!2455)))
 (let (($x1644 (and (or (not R_S2_V1) (= ?x2506 E1_!2452)) (or $x5445 (= ?x2301 (ite MW_S1_V3 S1_V3_!2448 V3_0))) (or (not R_S2_V2) (= ?x3930 ?x5965)) (or $x2170 (= ?x5285 (ite MW_S1_V5 S1_V5_!2450 V5_0))) (or $x139 (= ?x5018 (ite MW_S1_V4 S1_V4_!2451 V4_0))))))
 (let (($x662 (not $x1644)))
 (let (($x3270 (not R_S1_V4)))
 (let (($x3812 (or $x3270 (= ?x4308 V4_0))))
 (let (($x5537 (not R_S1_V5)))
 (let (($x1366 (or $x5537 (= ?x5127 V5_0))))
 (let (($x1030 (not R_S1_V2)))
 (let (($x5690 (or $x1030 (= ?x1999 V2_0))))
 (let (($x4082 (not R_S1_V3)))
 (let (($x3798 (or $x4082 (= ?x442 V3_0))))
 (let (($x3133 (and (or (not R_S1_V1) (= ?x2002 (+ (- 1) E1_!2446))) $x3798 $x5690 $x1366 $x3812)))
 (let (($x3145 (not $x3133)))
 (let (($x412 (= S1_V4_!2468 S1_V4_!2478)))
 (let (($x2153 (or $x3270 (= V4_0 ?x4308))))
 (let (($x2083 (or $x5537 (= V5_0 ?x5127))))
 (let (($x1184 (or $x1030 (= V2_0 ?x1999))))
 (let (($x4666 (or $x4082 (= V3_0 ?x442))))
 (let (($x1253 (not (and (or (not R_S1_V1) (= E1_!2463 ?x3274)) $x4666 $x1184 $x2083 $x2153))))
 (let (($x591 (and (or (not R_S2_V1) (= ?x866 (+ (- 1) ?x2950))) (or $x5445 (= (ite MW_S2_V3 S2_V3_!2454 (ite MW_S1_V3 S1_V3_!2448 V3_0)) ?x3955)) (or (not R_S2_V2) (= (ite MW_S2_V2 S2_V2_!2455 ?x5965) ?x757)) (or $x2170 (= (ite MW_S2_V5 S2_V5_!2456 (ite MW_S1_V5 S1_V5_!2450 V5_0)) ?x2643)) (or $x139 (= (ite MW_S2_V4 S2_V4_!2457 (ite MW_S1_V4 S1_V4_!2451 V4_0)) ?x1246)))))
 (let (($x4572 (not $x591)))
 (let (($x5667 (and (or (not R_S1_V1) (= ?x2002 (+ (- 1) E1_!2463))) $x3798 $x5690 $x1366 $x3812)))
 (let (($x2072 (not $x5667)))
 (let (($x2338 (and (or (not R_S2_V1) (= ?x866 (+ (- 1) ?x2506))) (or $x5445 (= (ite MW_S2_V3 S2_V3_!2454 (ite MW_S1_V3 S1_V3_!2448 V3_0)) ?x2301)) (or (not R_S2_V2) (= (ite MW_S2_V2 S2_V2_!2455 ?x5965) ?x3930)) (or $x2170 (= (ite MW_S2_V5 S2_V5_!2456 (ite MW_S1_V5 S1_V5_!2450 V5_0)) ?x5285)) (or $x139 (= (ite MW_S2_V4 S2_V4_!2457 (ite MW_S1_V4 S1_V4_!2451 V4_0)) ?x5018)))))
 (let (($x3575 (not $x2338)))
 (let (($x1692 (= E1_!2463 E1_!2446)))
 (let (($x5699 (and (or (not R_E1_V2) (= ?x5965 V2_0)) (or (not R_E1_V5) (= (ite MW_S1_V5 S1_V5_!2450 V5_0) V5_0)) (or (not R_E1_V4) (= (ite MW_S1_V4 S1_V4_!2451 V4_0) V4_0)))))
 (let (($x4665 (not $x5699)))
 (let (($x5508 (or $x139 (= (ite MW_S2_V4 S2_V4_!2457 (ite MW_S1_V4 S1_V4_!2451 V4_0)) (ite MW_S1_V4 S1_V4_!2451 V4_0)))))
 (let (($x2785 (or $x2170 (= (ite MW_S2_V5 S2_V5_!2456 (ite MW_S1_V5 S1_V5_!2450 V5_0)) (ite MW_S1_V5 S1_V5_!2450 V5_0)))))
 (let (($x990 (or $x5445 (= (ite MW_S2_V3 S2_V3_!2454 (ite MW_S1_V3 S1_V3_!2448 V3_0)) (ite MW_S1_V3 S1_V3_!2448 V3_0)))))
 (let (($x1169 (and (or (not R_S2_V1) (= ?x866 (+ (- 1) E1_!2452))) $x990 (or (not R_S2_V2) (= (ite MW_S2_V2 S2_V2_!2455 ?x5965) ?x5965)) $x2785 $x5508)))
 (let (($x1507 (or (not (and (or (not R_S1_V1) (= E1_!2446 ?x3274)) $x4666 $x1184 $x2083 $x2153)) (= S1_V1_!2447 S1_V1_!2474))))
 (let (($x1175 (and $x1507 (or (not (or (not R_S1_V1) $x1692)) (= S1_V1_!2464 S1_V1_!2447)) (or $x1253 (= S1_V1_!2464 S1_V1_!2474)) (or $x3461 (= S2_V5_!2456 S2_V5_!2472)) (or (not $x1169) (= S2_V5_!2461 S2_V5_!2456)) (or $x3575 (= S2_V5_!2461 S2_V5_!2472)) (or $x11 (= S2_V5_!2482 S2_V5_!2456)) (or $x2125 (= S2_V5_!2482 S2_V5_!2461)) (or $x3472 (= S2_V5_!2482 S2_V5_!2472)) (or (not (or (not R_S1_V1) $x1692)) (= S1_V3_!2465 S1_V3_!2448)) (or $x1253 (= S1_V3_!2465 S1_V3_!2475)) (or $x3145 (= S1_V3_!2475 S1_V3_!2448)) (or (not (or (not R_S1_V1) $x1692)) (= S1_V2_!2466 S1_V2_!2449)) (or $x3145 (= S1_V2_!2476 S1_V2_!2449)) (or $x2072 (= S1_V2_!2476 S1_V2_!2466)) (or $x4665 (= E1_!2452 E1_!2446)) (or $x4665 (= E1_!2452 E1_!2463)) $x1692 (or $x4828 (= S2_V4_!2457 S2_V4_!2462)) (or $x3461 (= S2_V4_!2457 S2_V4_!2473)) (or $x607 (= S2_V4_!2457 S2_V4_!2483)) (or $x3575 (= S2_V4_!2462 S2_V4_!2473)) (or $x4572 (= S2_V4_!2462 S2_V4_!2483)) (or $x3472 (= S2_V4_!2483 S2_V4_!2473)) (or (not (or (not R_S1_V1) $x1692)) (= S1_V5_!2467 S1_V5_!2450)) (or $x3145 (= S1_V5_!2477 S1_V5_!2450)) (or $x2072 (= S1_V5_!2477 S1_V5_!2467)) (or $x4828 (= S2_V1_!2453 S2_V1_!2458)) (or $x607 (= S2_V1_!2453 S2_V1_!2479)) (or $x4572 (= S2_V1_!2458 S2_V1_!2479)) (or $x662 (= S2_V1_!2469 S2_V1_!2453)) (or $x5618 (= S2_V1_!2469 S2_V1_!2458)) (or $x2080 (= S2_V1_!2469 S2_V1_!2479)) (or (not (or (not R_S1_V1) $x1692)) (= S1_V4_!2468 S1_V4_!2451)) (or $x1253 $x412) (or $x3145 (= S1_V4_!2478 S1_V4_!2451)) (or $x4828 (= S2_V2_!2455 S2_V2_!2460)) (or $x662 $x4783) (or $x5618 (= S2_V2_!2471 S2_V2_!2460)) (or $x2080 $x1297) (or $x11 $x3725) (or $x2125 (= S2_V2_!2481 S2_V2_!2460)) (or $x4828 $x2094) (or $x3461 $x3802) (or $x607 $x3573) (or $x5618 $x1010) (or $x2125 $x694) (or $x3472 $x3797) (not MW_S1_V1) (not MW_S1_V2) (or (not MW_S1_V5) W_S1_V5) (or (not MW_S1_V4) W_S1_V4) (or (not MW_S2_V1) W_S2_V1) (or (not MW_S2_V3) W_S2_V3) (or (not MW_S2_V2) W_S2_V2) (or (not MW_S2_V5) W_S2_V5))))
 (or (not $x1175) (not $x5082) (and (= ?x3064 ?x5873) $x1687 (= ?x2136 ?x5024) $x1788 $x5378))))))))))))))))))))))))))))))))))))))))))))))))))))))))))))))))))))))))))))))))))))))))))))))
 )
 )
 )
 )
 )
 )
 )
 )
 )
 )
 )
 )
 )
 )
 )
 )
 )
 )
 )
 )
 )
 )
 )
 )
 )
 )
 )
 )
 )
 )
 )
 )
 )
 )
 )
 )
 )
 )
 )
 )
 )
 )
 )
 )
 )
 )
 )
 )
 )
 )
 )
 ))
 (let (($x62 (or (and W_S2_V2 R_E1_V2) (and W_S2_V5 R_E1_V5) R_E1_V4)))
 (let (($x5268 (= DISJ_W_S2_R_E1 (not $x62))))
 (let (($x6060 (and W_S2_V5 R_S2_V5)))
 (let (($x979 (and W_S2_V2 R_S2_V2)))
 (let (($x94 (and W_S2_V3 R_S2_V3)))
 (let (($x4691 (and W_S2_V1 R_S2_V1)))
 (let (($x2206 (= DISJ_W_S2_R_S2 (not (or $x4691 $x94 $x979 $x6060 R_S2_V4)))))
 (let (($x5352 (and W_S2_V5 R_S1_V5)))
 (let (($x913 (and W_S2_V2 R_S1_V2)))
 (let (($x5900 (and W_S2_V3 R_S1_V3)))
 (let (($x5681 (and W_S2_V1 R_S1_V1)))
 (let (($x714 (= DISJ_W_S2_R_S1 (not (or $x5681 $x5900 $x913 $x5352 R_S1_V4)))))
 (let (($x3117 (= DISJ_W_S1_W_S2 (not (or W_S2_V3 (and W_S1_V5 W_S2_V5) W_S1_V4)))))
 (let (($x251 (not R_E1_V3)))
 (let (($x5229 (not (or R_S2_V3 (and W_S1_V5 R_S2_V5) (and W_S1_V4 R_S2_V4)))))
 (let (($x3948 (= DISJ_W_S1_R_S2 $x5229)))
 (let (($x1932 (not (or R_S1_V3 (and W_S1_V5 R_S1_V5) (and W_S1_V4 R_S1_V4)))))
 (let (($x860 (= DISJ_W_S1_R_S1 $x1932)))
 (let (($x1572 (not R_S1_V1)))
 (let (($x40 (and $x1572 DISJ_W_S1_R_S1)))
 (let (($x5055 (not W_S2_V2)))
 (let (($x4889 (not W_S2_V1)))
 (let (($x2164 (and $x4889 $x5055)))
 (let (($x3418 (and $x5055 DISJ_W_S2_R_S1 DISJ_W_S1_R_S1)))
 (let (($x5177 (or $x3418 $x2164 $x40)))
 (let (($x347 (not W_S1_V2)))
 (let (($x3913 (not W_S1_V1)))
 (let (($x1588 (not R_E1_V1)))
 (let (($x1544 (and DISJ_W_S1_R_E1 $x1588 $x3913 $x347 $x5177 W_S1_V3 W_S2_V4 $x860 $x3948 $x251 $x3117 $x714 $x2206 $x5268 $x4306 $x4438 $x20)))
 (and $x1544 $x5047)))))))))))))))))))))))))))))))))))
(check-sat)
